Minimize
	value: tt

Subject to
tt + 1000 s_1_1 > 0.0
tt - t_1_1 - 1001.110473 s_1_1  + 0.555236 s_1_8  + 0.555236 s_1_7  > -992.069300
tt + 1000 s_2_1 > 0.0
tt - t_2_1 - 1000.943601 s_2_1  + 0.471800 s_2_8  + 0.471800 s_2_7  > -992.780458
tt + 1000 s_1_2 > 0.0
tt - t_1_2 - 1000.555236 s_1_2  + 0.555236 s_1_7  > -992.246300
tt + 1000 s_2_2 > 0.0
tt - t_2_2 - 1000.471800 s_2_2  + 0.471800 s_2_7  > -992.874486
tt + 1000 s_1_3 > 0.0
tt - t_1_3 - 1001.110473 s_1_3  + 0.555236 s_1_8  + 0.555236 s_1_7  > -999.523089
tt + 1000 s_2_3 > 0.0
tt - t_2_3 - 1000.943601 s_2_3  + 0.471800 s_2_8  + 0.471800 s_2_7  > -998.389496
tt + 1000 s_1_4 > 0.0
tt - t_1_4 - 1000.555236 s_1_4  + 0.555236 s_1_7  > -999.209378
tt + 1000 s_2_4 > 0.0
tt - t_2_4 - 1000.471800 s_2_4  + 0.471800 s_2_7  > -997.483615
tt + 1000 s_1_5 > 0.0
tt - t_1_5 - 1000.555236 s_1_5  + 0.555236 s_1_8  > -996.274456
tt + 1000 s_2_5 > 0.0
tt - t_2_5 - 1000.471800 s_2_5  + 0.471800 s_2_8  > -996.187833
tt + 1000 s_1_6 > 0.0
tt - t_1_6 - 1003.331418 s_1_6  + 0.555236 s_1_4  + 0.555236 s_1_2  + 0.555236 s_1_7  + 0.555236 s_1_5  + 0.555236 s_1_3  + 0.555236 s_1_1  > -999.687300
tt + 1000 s_2_6 > 0.0
tt - t_2_6 - 1002.830803 s_2_6  + 0.471800 s_2_4  + 0.471800 s_2_2  + 0.471800 s_2_7  + 0.471800 s_2_5  + 0.471800 s_2_3  + 0.471800 s_2_1  > -999.270125
tt + 1000 s_1_7 > 0.0
tt - t_1_7 - 1000.000000 s_1_7  > -988.022900
tt + 1000 s_2_7 > 0.0
tt - t_2_7 - 1000.000000 s_2_7  > -993.667894
tt + 1000 s_1_8 > 0.0
tt - t_1_8 - 1000.000000 s_1_8  > -988.202300
tt + 1000 s_2_8 > 0.0
tt - t_2_8 - 1000.000000 s_2_8  > -993.843056
s_1_1 + s_2_1 = 1
s_1_2 + s_2_2 = 1
s_1_3 + s_2_3 = 1
s_1_4 + s_2_4 = 1
s_1_5 + s_2_5 = 1
s_1_6 + s_2_6 = 1
s_1_7 + s_2_7 = 1
s_1_8 + s_2_8 = 1
s_1_1 + s_1_2 + 1000 r_1_1_2 >= 2
- s_1_1 - s_1_2 - 1000 r_1_1_2 >= -1001
t_1_1 - t_1_2 - 1000.000000 u_1_1_2 - 0.555236 s_1_2  + 0.555236 s_1_7  + 2000.000000 r_1_1_2 > -992.246300
s_2_1 + s_2_2 + 1000 r_2_1_2 >= 2
- s_2_1 - s_2_2 - 1000 r_2_1_2 >= -1001
t_2_1 - t_2_2 - 1000.000000 u_2_1_2 - 0.471800 s_2_2  + 0.471800 s_2_7  + 2000.000000 r_2_1_2 > -992.874486
s_1_1 + s_1_3 + 1000 r_1_1_3 >= 2
- s_1_1 - s_1_3 - 1000 r_1_1_3 >= -1001
t_1_1 - t_1_3 - 1000.000000 u_1_1_3 - 1.110473 s_1_3  + 0.555236 s_1_8  + 0.555236 s_1_7  + 2000.000000 r_1_1_3 > -999.523089
s_2_1 + s_2_3 + 1000 r_2_1_3 >= 2
- s_2_1 - s_2_3 - 1000 r_2_1_3 >= -1001
t_2_1 - t_2_3 - 1000.000000 u_2_1_3 - 0.943601 s_2_3  + 0.471800 s_2_8  + 0.471800 s_2_7  + 2000.000000 r_2_1_3 > -998.389496
s_1_1 + s_1_4 + 1000 r_1_1_4 >= 2
- s_1_1 - s_1_4 - 1000 r_1_1_4 >= -1001
t_1_1 - t_1_4 - 1000.000000 u_1_1_4 - 0.555236 s_1_4  + 0.555236 s_1_7  + 2000.000000 r_1_1_4 > -999.209378
s_2_1 + s_2_4 + 1000 r_2_1_4 >= 2
- s_2_1 - s_2_4 - 1000 r_2_1_4 >= -1001
t_2_1 - t_2_4 - 1000.000000 u_2_1_4 - 0.471800 s_2_4  + 0.471800 s_2_7  + 2000.000000 r_2_1_4 > -997.483615
s_1_1 + s_1_5 + 1000 r_1_1_5 >= 2
- s_1_1 - s_1_5 - 1000 r_1_1_5 >= -1001
t_1_1 - t_1_5 - 1000.000000 u_1_1_5 - 0.555236 s_1_5  + 0.555236 s_1_8  + 2000.000000 r_1_1_5 > -996.274456
s_2_1 + s_2_5 + 1000 r_2_1_5 >= 2
- s_2_1 - s_2_5 - 1000 r_2_1_5 >= -1001
t_2_1 - t_2_5 - 1000.000000 u_2_1_5 - 0.471800 s_2_5  + 0.471800 s_2_8  + 2000.000000 r_2_1_5 > -996.187833
t_1_6 - t_1_1 - 1001.110473 s_1_1  + 0.555236 s_1_8  + 0.555236 s_1_7  > -992.069300
t_1_6 - t_2_1 - 1000.943601 s_2_1  + 0.471800 s_2_8  + 0.471800 s_2_7  > -992.780458
t_2_6 - t_1_1 - 1001.110473 s_1_1  + 0.555236 s_1_8  + 0.555236 s_1_7  > -992.069300
t_2_6 - t_2_1 - 1000.943601 s_2_1  + 0.471800 s_2_8  + 0.471800 s_2_7  > -992.780458
t_1_1 - t_1_7 - 1000.000000 s_1_7  > -988.022900
t_1_1 - t_2_7 - 1000.000000 s_2_7  > -993.667894
t_2_1 - t_1_7 - 1000.000000 s_1_7  > -988.022900
t_2_1 - t_2_7 - 1000.000000 s_2_7  > -993.667894
t_1_1 - t_1_8 - 1000.000000 s_1_8  > -988.202300
t_1_1 - t_2_8 - 1000.000000 s_2_8  > -993.843056
t_2_1 - t_1_8 - 1000.000000 s_1_8  > -988.202300
t_2_1 - t_2_8 - 1000.000000 s_2_8  > -993.843056
s_1_2 + s_1_1 + 1000 r_1_1_2 >= 2
- s_1_2 - s_1_1 - 1000 r_1_1_2 >= -1001
t_1_2 - t_1_1 + 1000.000000 u_1_1_2 - 1.110473 s_1_1  + 0.555236 s_1_8  + 0.555236 s_1_7  + 2000.000000 r_1_1_2 > 7.930700
s_2_2 + s_2_1 + 1000 r_2_1_2 >= 2
- s_2_2 - s_2_1 - 1000 r_2_1_2 >= -1001
t_2_2 - t_2_1 + 1000.000000 u_2_1_2 - 0.943601 s_2_1  + 0.471800 s_2_8  + 0.471800 s_2_7  + 2000.000000 r_2_1_2 > 7.219542
s_1_2 + s_1_3 + 1000 r_1_2_3 >= 2
- s_1_2 - s_1_3 - 1000 r_1_2_3 >= -1001
t_1_2 - t_1_3 - 1000.000000 u_1_2_3 - 1.110473 s_1_3  + 0.555236 s_1_8  + 0.555236 s_1_7  + 2000.000000 r_1_2_3 > -999.523089
s_2_2 + s_2_3 + 1000 r_2_2_3 >= 2
- s_2_2 - s_2_3 - 1000 r_2_2_3 >= -1001
t_2_2 - t_2_3 - 1000.000000 u_2_2_3 - 0.943601 s_2_3  + 0.471800 s_2_8  + 0.471800 s_2_7  + 2000.000000 r_2_2_3 > -998.389496
s_1_2 + s_1_4 + 1000 r_1_2_4 >= 2
- s_1_2 - s_1_4 - 1000 r_1_2_4 >= -1001
t_1_2 - t_1_4 - 1000.000000 u_1_2_4 - 0.555236 s_1_4  + 0.555236 s_1_7  + 2000.000000 r_1_2_4 > -999.209378
s_2_2 + s_2_4 + 1000 r_2_2_4 >= 2
- s_2_2 - s_2_4 - 1000 r_2_2_4 >= -1001
t_2_2 - t_2_4 - 1000.000000 u_2_2_4 - 0.471800 s_2_4  + 0.471800 s_2_7  + 2000.000000 r_2_2_4 > -997.483615
s_1_2 + s_1_5 + 1000 r_1_2_5 >= 2
- s_1_2 - s_1_5 - 1000 r_1_2_5 >= -1001
t_1_2 - t_1_5 - 1000.000000 u_1_2_5 - 0.555236 s_1_5  + 0.555236 s_1_8  + 2000.000000 r_1_2_5 > -996.274456
s_2_2 + s_2_5 + 1000 r_2_2_5 >= 2
- s_2_2 - s_2_5 - 1000 r_2_2_5 >= -1001
t_2_2 - t_2_5 - 1000.000000 u_2_2_5 - 0.471800 s_2_5  + 0.471800 s_2_8  + 2000.000000 r_2_2_5 > -996.187833
t_1_6 - t_1_2 - 1000.555236 s_1_2  + 0.555236 s_1_7  > -992.246300
t_1_6 - t_2_2 - 1000.471800 s_2_2  + 0.471800 s_2_7  > -992.874486
t_2_6 - t_1_2 - 1000.555236 s_1_2  + 0.555236 s_1_7  > -992.246300
t_2_6 - t_2_2 - 1000.471800 s_2_2  + 0.471800 s_2_7  > -992.874486
t_1_2 - t_1_7 - 1000.000000 s_1_7  > -988.022900
t_1_2 - t_2_7 - 1000.000000 s_2_7  > -993.667894
t_2_2 - t_1_7 - 1000.000000 s_1_7  > -988.022900
t_2_2 - t_2_7 - 1000.000000 s_2_7  > -993.667894
s_1_2 + s_1_8 + 1000 r_1_2_8 >= 2
- s_1_2 - s_1_8 - 1000 r_1_2_8 >= -1001
t_1_2 - t_1_8 - 1000.000000 u_1_2_8 - 0.000000 s_1_8  + 2000.000000 r_1_2_8 > -988.202300
s_2_2 + s_2_8 + 1000 r_2_2_8 >= 2
- s_2_2 - s_2_8 - 1000 r_2_2_8 >= -1001
t_2_2 - t_2_8 - 1000.000000 u_2_2_8 - 0.000000 s_2_8  + 2000.000000 r_2_2_8 > -993.843056
s_1_3 + s_1_1 + 1000 r_1_1_3 >= 2
- s_1_3 - s_1_1 - 1000 r_1_1_3 >= -1001
t_1_3 - t_1_1 + 1000.000000 u_1_1_3 - 1.110473 s_1_1  + 0.555236 s_1_8  + 0.555236 s_1_7  + 2000.000000 r_1_1_3 > 7.930700
s_2_3 + s_2_1 + 1000 r_2_1_3 >= 2
- s_2_3 - s_2_1 - 1000 r_2_1_3 >= -1001
t_2_3 - t_2_1 + 1000.000000 u_2_1_3 - 0.943601 s_2_1  + 0.471800 s_2_8  + 0.471800 s_2_7  + 2000.000000 r_2_1_3 > 7.219542
s_1_3 + s_1_2 + 1000 r_1_2_3 >= 2
- s_1_3 - s_1_2 - 1000 r_1_2_3 >= -1001
t_1_3 - t_1_2 + 1000.000000 u_1_2_3 - 0.555236 s_1_2  + 0.555236 s_1_7  + 2000.000000 r_1_2_3 > 7.753700
s_2_3 + s_2_2 + 1000 r_2_2_3 >= 2
- s_2_3 - s_2_2 - 1000 r_2_2_3 >= -1001
t_2_3 - t_2_2 + 1000.000000 u_2_2_3 - 0.471800 s_2_2  + 0.471800 s_2_7  + 2000.000000 r_2_2_3 > 7.125514
s_1_3 + s_1_4 + 1000 r_1_3_4 >= 2
- s_1_3 - s_1_4 - 1000 r_1_3_4 >= -1001
t_1_3 - t_1_4 - 1000.000000 u_1_3_4 - 0.555236 s_1_4  + 0.555236 s_1_7  + 2000.000000 r_1_3_4 > -999.209378
s_2_3 + s_2_4 + 1000 r_2_3_4 >= 2
- s_2_3 - s_2_4 - 1000 r_2_3_4 >= -1001
t_2_3 - t_2_4 - 1000.000000 u_2_3_4 - 0.471800 s_2_4  + 0.471800 s_2_7  + 2000.000000 r_2_3_4 > -997.483615
s_1_3 + s_1_5 + 1000 r_1_3_5 >= 2
- s_1_3 - s_1_5 - 1000 r_1_3_5 >= -1001
t_1_3 - t_1_5 - 1000.000000 u_1_3_5 - 0.555236 s_1_5  + 0.555236 s_1_8  + 2000.000000 r_1_3_5 > -996.274456
s_2_3 + s_2_5 + 1000 r_2_3_5 >= 2
- s_2_3 - s_2_5 - 1000 r_2_3_5 >= -1001
t_2_3 - t_2_5 - 1000.000000 u_2_3_5 - 0.471800 s_2_5  + 0.471800 s_2_8  + 2000.000000 r_2_3_5 > -996.187833
t_1_6 - t_1_3 - 1001.110473 s_1_3  + 0.555236 s_1_8  + 0.555236 s_1_7  > -999.523089
t_1_6 - t_2_3 - 1000.943601 s_2_3  + 0.471800 s_2_8  + 0.471800 s_2_7  > -998.389496
t_2_6 - t_1_3 - 1001.110473 s_1_3  + 0.555236 s_1_8  + 0.555236 s_1_7  > -999.523089
t_2_6 - t_2_3 - 1000.943601 s_2_3  + 0.471800 s_2_8  + 0.471800 s_2_7  > -998.389496
t_1_3 - t_1_7 - 1000.000000 s_1_7  > -988.022900
t_1_3 - t_2_7 - 1000.000000 s_2_7  > -993.667894
t_2_3 - t_1_7 - 1000.000000 s_1_7  > -988.022900
t_2_3 - t_2_7 - 1000.000000 s_2_7  > -993.667894
t_1_3 - t_1_8 - 1000.000000 s_1_8  > -988.202300
t_1_3 - t_2_8 - 1000.000000 s_2_8  > -993.843056
t_2_3 - t_1_8 - 1000.000000 s_1_8  > -988.202300
t_2_3 - t_2_8 - 1000.000000 s_2_8  > -993.843056
s_1_4 + s_1_1 + 1000 r_1_1_4 >= 2
- s_1_4 - s_1_1 - 1000 r_1_1_4 >= -1001
t_1_4 - t_1_1 + 1000.000000 u_1_1_4 - 1.110473 s_1_1  + 0.555236 s_1_8  + 0.555236 s_1_7  + 2000.000000 r_1_1_4 > 7.930700
s_2_4 + s_2_1 + 1000 r_2_1_4 >= 2
- s_2_4 - s_2_1 - 1000 r_2_1_4 >= -1001
t_2_4 - t_2_1 + 1000.000000 u_2_1_4 - 0.943601 s_2_1  + 0.471800 s_2_8  + 0.471800 s_2_7  + 2000.000000 r_2_1_4 > 7.219542
s_1_4 + s_1_2 + 1000 r_1_2_4 >= 2
- s_1_4 - s_1_2 - 1000 r_1_2_4 >= -1001
t_1_4 - t_1_2 + 1000.000000 u_1_2_4 - 0.555236 s_1_2  + 0.555236 s_1_7  + 2000.000000 r_1_2_4 > 7.753700
s_2_4 + s_2_2 + 1000 r_2_2_4 >= 2
- s_2_4 - s_2_2 - 1000 r_2_2_4 >= -1001
t_2_4 - t_2_2 + 1000.000000 u_2_2_4 - 0.471800 s_2_2  + 0.471800 s_2_7  + 2000.000000 r_2_2_4 > 7.125514
s_1_4 + s_1_3 + 1000 r_1_3_4 >= 2
- s_1_4 - s_1_3 - 1000 r_1_3_4 >= -1001
t_1_4 - t_1_3 + 1000.000000 u_1_3_4 - 1.110473 s_1_3  + 0.555236 s_1_8  + 0.555236 s_1_7  + 2000.000000 r_1_3_4 > 0.476911
s_2_4 + s_2_3 + 1000 r_2_3_4 >= 2
- s_2_4 - s_2_3 - 1000 r_2_3_4 >= -1001
t_2_4 - t_2_3 + 1000.000000 u_2_3_4 - 0.943601 s_2_3  + 0.471800 s_2_8  + 0.471800 s_2_7  + 2000.000000 r_2_3_4 > 1.610504
s_1_4 + s_1_5 + 1000 r_1_4_5 >= 2
- s_1_4 - s_1_5 - 1000 r_1_4_5 >= -1001
t_1_4 - t_1_5 - 1000.000000 u_1_4_5 - 0.555236 s_1_5  + 0.555236 s_1_8  + 2000.000000 r_1_4_5 > -996.274456
s_2_4 + s_2_5 + 1000 r_2_4_5 >= 2
- s_2_4 - s_2_5 - 1000 r_2_4_5 >= -1001
t_2_4 - t_2_5 - 1000.000000 u_2_4_5 - 0.471800 s_2_5  + 0.471800 s_2_8  + 2000.000000 r_2_4_5 > -996.187833
t_1_6 - t_1_4 - 1000.555236 s_1_4  + 0.555236 s_1_7  > -999.209378
t_1_6 - t_2_4 - 1000.471800 s_2_4  + 0.471800 s_2_7  > -997.483615
t_2_6 - t_1_4 - 1000.555236 s_1_4  + 0.555236 s_1_7  > -999.209378
t_2_6 - t_2_4 - 1000.471800 s_2_4  + 0.471800 s_2_7  > -997.483615
t_1_4 - t_1_7 - 1000.000000 s_1_7  > -988.022900
t_1_4 - t_2_7 - 1000.000000 s_2_7  > -993.667894
t_2_4 - t_1_7 - 1000.000000 s_1_7  > -988.022900
t_2_4 - t_2_7 - 1000.000000 s_2_7  > -993.667894
s_1_4 + s_1_8 + 1000 r_1_4_8 >= 2
- s_1_4 - s_1_8 - 1000 r_1_4_8 >= -1001
t_1_4 - t_1_8 - 1000.000000 u_1_4_8 - 0.000000 s_1_8  + 2000.000000 r_1_4_8 > -988.202300
s_2_4 + s_2_8 + 1000 r_2_4_8 >= 2
- s_2_4 - s_2_8 - 1000 r_2_4_8 >= -1001
t_2_4 - t_2_8 - 1000.000000 u_2_4_8 - 0.000000 s_2_8  + 2000.000000 r_2_4_8 > -993.843056
s_1_5 + s_1_1 + 1000 r_1_1_5 >= 2
- s_1_5 - s_1_1 - 1000 r_1_1_5 >= -1001
t_1_5 - t_1_1 + 1000.000000 u_1_1_5 - 1.110473 s_1_1  + 0.555236 s_1_8  + 0.555236 s_1_7  + 2000.000000 r_1_1_5 > 7.930700
s_2_5 + s_2_1 + 1000 r_2_1_5 >= 2
- s_2_5 - s_2_1 - 1000 r_2_1_5 >= -1001
t_2_5 - t_2_1 + 1000.000000 u_2_1_5 - 0.943601 s_2_1  + 0.471800 s_2_8  + 0.471800 s_2_7  + 2000.000000 r_2_1_5 > 7.219542
s_1_5 + s_1_2 + 1000 r_1_2_5 >= 2
- s_1_5 - s_1_2 - 1000 r_1_2_5 >= -1001
t_1_5 - t_1_2 + 1000.000000 u_1_2_5 - 0.555236 s_1_2  + 0.555236 s_1_7  + 2000.000000 r_1_2_5 > 7.753700
s_2_5 + s_2_2 + 1000 r_2_2_5 >= 2
- s_2_5 - s_2_2 - 1000 r_2_2_5 >= -1001
t_2_5 - t_2_2 + 1000.000000 u_2_2_5 - 0.471800 s_2_2  + 0.471800 s_2_7  + 2000.000000 r_2_2_5 > 7.125514
s_1_5 + s_1_3 + 1000 r_1_3_5 >= 2
- s_1_5 - s_1_3 - 1000 r_1_3_5 >= -1001
t_1_5 - t_1_3 + 1000.000000 u_1_3_5 - 1.110473 s_1_3  + 0.555236 s_1_8  + 0.555236 s_1_7  + 2000.000000 r_1_3_5 > 0.476911
s_2_5 + s_2_3 + 1000 r_2_3_5 >= 2
- s_2_5 - s_2_3 - 1000 r_2_3_5 >= -1001
t_2_5 - t_2_3 + 1000.000000 u_2_3_5 - 0.943601 s_2_3  + 0.471800 s_2_8  + 0.471800 s_2_7  + 2000.000000 r_2_3_5 > 1.610504
s_1_5 + s_1_4 + 1000 r_1_4_5 >= 2
- s_1_5 - s_1_4 - 1000 r_1_4_5 >= -1001
t_1_5 - t_1_4 + 1000.000000 u_1_4_5 - 0.555236 s_1_4  + 0.555236 s_1_7  + 2000.000000 r_1_4_5 > 0.790622
s_2_5 + s_2_4 + 1000 r_2_4_5 >= 2
- s_2_5 - s_2_4 - 1000 r_2_4_5 >= -1001
t_2_5 - t_2_4 + 1000.000000 u_2_4_5 - 0.471800 s_2_4  + 0.471800 s_2_7  + 2000.000000 r_2_4_5 > 2.516385
t_1_6 - t_1_5 - 1000.555236 s_1_5  + 0.555236 s_1_8  > -996.274456
t_1_6 - t_2_5 - 1000.471800 s_2_5  + 0.471800 s_2_8  > -996.187833
t_2_6 - t_1_5 - 1000.555236 s_1_5  + 0.555236 s_1_8  > -996.274456
t_2_6 - t_2_5 - 1000.471800 s_2_5  + 0.471800 s_2_8  > -996.187833
s_1_5 + s_1_7 + 1000 r_1_5_7 >= 2
- s_1_5 - s_1_7 - 1000 r_1_5_7 >= -1001
t_1_5 - t_1_7 - 1000.000000 u_1_5_7 - 0.000000 s_1_7  + 2000.000000 r_1_5_7 > -988.022900
s_2_5 + s_2_7 + 1000 r_2_5_7 >= 2
- s_2_5 - s_2_7 - 1000 r_2_5_7 >= -1001
t_2_5 - t_2_7 - 1000.000000 u_2_5_7 - 0.000000 s_2_7  + 2000.000000 r_2_5_7 > -993.667894
t_1_5 - t_1_8 - 1000.000000 s_1_8  > -988.202300
t_1_5 - t_2_8 - 1000.000000 s_2_8  > -993.843056
t_2_5 - t_1_8 - 1000.000000 s_1_8  > -988.202300
t_2_5 - t_2_8 - 1000.000000 s_2_8  > -993.843056
t_1_6 - t_1_7 - 1000.000000 s_1_7  > -988.022900
t_1_6 - t_2_7 - 1000.000000 s_2_7  > -993.667894
t_2_6 - t_1_7 - 1000.000000 s_1_7  > -988.022900
t_2_6 - t_2_7 - 1000.000000 s_2_7  > -993.667894
s_1_7 + s_1_5 + 1000 r_1_5_7 >= 2
- s_1_7 - s_1_5 - 1000 r_1_5_7 >= -1001
t_1_7 - t_1_5 + 1000.000000 u_1_5_7 - 0.555236 s_1_5  + 0.555236 s_1_8  + 2000.000000 r_1_5_7 > 3.725544
s_2_7 + s_2_5 + 1000 r_2_5_7 >= 2
- s_2_7 - s_2_5 - 1000 r_2_5_7 >= -1001
t_2_7 - t_2_5 + 1000.000000 u_2_5_7 - 0.471800 s_2_5  + 0.471800 s_2_8  + 2000.000000 r_2_5_7 > 3.812167
s_1_7 + s_1_8 + 1000 r_1_7_8 >= 2
- s_1_7 - s_1_8 - 1000 r_1_7_8 >= -1001
t_1_7 - t_1_8 - 1000.000000 u_1_7_8 - 0.000000 s_1_8  + 2000.000000 r_1_7_8 > -988.202300
s_2_7 + s_2_8 + 1000 r_2_7_8 >= 2
- s_2_7 - s_2_8 - 1000 r_2_7_8 >= -1001
t_2_7 - t_2_8 - 1000.000000 u_2_7_8 - 0.000000 s_2_8  + 2000.000000 r_2_7_8 > -993.843056
s_1_8 + s_1_2 + 1000 r_1_2_8 >= 2
- s_1_8 - s_1_2 - 1000 r_1_2_8 >= -1001
t_1_8 - t_1_2 + 1000.000000 u_1_2_8 - 0.555236 s_1_2  + 0.555236 s_1_7  + 2000.000000 r_1_2_8 > 7.753700
s_2_8 + s_2_2 + 1000 r_2_2_8 >= 2
- s_2_8 - s_2_2 - 1000 r_2_2_8 >= -1001
t_2_8 - t_2_2 + 1000.000000 u_2_2_8 - 0.471800 s_2_2  + 0.471800 s_2_7  + 2000.000000 r_2_2_8 > 7.125514
s_1_8 + s_1_4 + 1000 r_1_4_8 >= 2
- s_1_8 - s_1_4 - 1000 r_1_4_8 >= -1001
t_1_8 - t_1_4 + 1000.000000 u_1_4_8 - 0.555236 s_1_4  + 0.555236 s_1_7  + 2000.000000 r_1_4_8 > 0.790622
s_2_8 + s_2_4 + 1000 r_2_4_8 >= 2
- s_2_8 - s_2_4 - 1000 r_2_4_8 >= -1001
t_2_8 - t_2_4 + 1000.000000 u_2_4_8 - 0.471800 s_2_4  + 0.471800 s_2_7  + 2000.000000 r_2_4_8 > 2.516385
s_1_8 + s_1_7 + 1000 r_1_7_8 >= 2
- s_1_8 - s_1_7 - 1000 r_1_7_8 >= -1001
t_1_8 - t_1_7 + 1000.000000 u_1_7_8 - 0.000000 s_1_7  + 2000.000000 r_1_7_8 > 11.977100
s_2_8 + s_2_7 + 1000 r_2_7_8 >= 2
- s_2_8 - s_2_7 - 1000 r_2_7_8 >= -1001
t_2_8 - t_2_7 + 1000.000000 u_2_7_8 - 0.000000 s_2_7  + 2000.000000 r_2_7_8 > 6.332106
Binary
s_1_1
s_2_1
s_1_2
s_2_2
s_1_3
s_2_3
s_1_4
s_2_4
s_1_5
s_2_5
s_1_6
s_2_6
s_1_7
s_2_7
s_1_8
s_2_8
u_1_1_2
r_1_1_2
u_2_1_2
r_2_1_2
u_1_1_3
r_1_1_3
u_2_1_3
r_2_1_3
u_1_1_4
r_1_1_4
u_2_1_4
r_2_1_4
u_1_1_5
r_1_1_5
u_2_1_5
r_2_1_5
u_1_2_3
r_1_2_3
u_2_2_3
r_2_2_3
u_1_2_4
r_1_2_4
u_2_2_4
r_2_2_4
u_1_2_5
r_1_2_5
u_2_2_5
r_2_2_5
u_1_2_8
r_1_2_8
u_2_2_8
r_2_2_8
u_1_3_4
r_1_3_4
u_2_3_4
r_2_3_4
u_1_3_5
r_1_3_5
u_2_3_5
r_2_3_5
u_1_4_5
r_1_4_5
u_2_4_5
r_2_4_5
u_1_4_8
r_1_4_8
u_2_4_8
r_2_4_8
u_1_5_7
r_1_5_7
u_2_5_7
r_2_5_7
u_1_7_8
r_1_7_8
u_2_7_8
r_2_7_8

End
